120
150
38
87
84
24
87
40
99
75
98
63
77
32
39
78
63
87
52
36
32
63
99
51
84
65
65
99
40
87
100
84
51
99
32
87
46
51
63
84
37
73
98
31
44
33
98
79
80
52
87
52
100
36
25
99
35
93
39
63
48
51
29
84
54
81
31
29
71
36
69
80
50
40
54
94
68
30
82
69
91
80
30
78
40
63
87
46
52
75
52
73
51
63
29
100
69
81
63
29
93
99
52
69
54
93
81
36
93
48
54
98
35
71
56
79
98
32
51
63
52
87
